NAME: A-n39-k6
COMMENT: GVRP
DIMENSION:  39 
VEHICLES:  2 
GVRP_SETS:  13 
CAPACITY:  100 
NODE_COORD_SECTION 
1 39.000000 19.000000
2 79.000000 19.000000
3 41.000000 79.000000
4 25.000000 31.000000
5 63.000000 93.000000
6 33.000000 5.000000
7 69.000000 17.000000
8 57.000000 73.000000
9 53.000000 75.000000
10 1.000000 1.000000
11 79.000000 73.000000
12 59.000000 5.000000
13 1.000000 37.000000
14 41.000000 31.000000
15 23.000000 73.000000
16 37.000000 27.000000
17 85.000000 93.000000
18 93.000000 13.000000
19 85.000000 45.000000
20 49.000000 91.000000
21 55.000000 43.000000
22 83.000000 29.000000
23 93.000000 49.000000
24 87.000000 23.000000
25 31.000000 23.000000
26 19.000000 97.000000
27 41.000000 9.000000
28 83.000000 61.000000
29 9.000000 7.000000
30 13.000000 13.000000
31 43.000000 37.000000
32 13.000000 61.000000
33 71.000000 51.000000
34 45.000000 93.000000
35 93.000000 55.000000
36 5.000000 97.000000
37 81.000000 11.000000
38 7.000000 53.000000
39 7.000000 41.000000
GVRP_SET_SECTION 
 1 17 -1
 2  10  29  30 -1
 3  37  2  7  18  22  24 -1
 4  36  26 -1
 5  31  4  14  16  21  25 -1
 6  3  8  9  15  20  34 -1
 7  23  19  35 -1
 8  38  13  32  39 -1
 9  6  27 -1
 10  12 -1
 11  5 -1
 12  33 -1
 13  11  28 -1
 DEMAND_SECTION
 1 23 
 2 11 
 3 11 
 4 11 
 5 24 
 6 11 
 7 12 
 8 9 
 9 9 
 10 18 
 11 24 
 12 11 
 13 9 
INTRA_CLUSTER_DISTANCE
100000000 100000000 100000000 100000000 100000000 100000000 100000000 100000000 100000000 100000000 100000000 100000000 100000000 100000000 100000000 100000000 100000000 100000000 100000000 100000000 100000000 100000000 100000000 100000000 100000000 100000000 100000000 100000000 100000000 100000000 100000000 100000000 100000000 100000000 100000000 100000000 100000000 100000000 100000000 
100000000 100000000 100000000 100000000 100000000 100000000 55 100000000 100000000 100000000 100000000 100000000 100000000 100000000 100000000 100000000 100000000 58 100000000 100000000 100000000 54 100000000 61 100000000 100000000 100000000 100000000 100000000 100000000 100000000 100000000 100000000 100000000 100000000 100000000 59 100000000 100000000 
100000000 100000000 100000000 100000000 100000000 100000000 100000000 73 77 100000000 100000000 100000000 100000000 100000000 71 100000000 100000000 100000000 100000000 80 100000000 100000000 100000000 100000000 100000000 100000000 100000000 100000000 100000000 100000000 100000000 100000000 100000000 77 100000000 100000000 100000000 100000000 100000000 
100000000 100000000 100000000 100000000 100000000 100000000 100000000 100000000 100000000 100000000 100000000 100000000 100000000 60 100000000 65 100000000 100000000 100000000 100000000 42 100000000 100000000 100000000 63 100000000 100000000 100000000 100000000 100000000 54 100000000 100000000 100000000 100000000 100000000 100000000 100000000 100000000 
100000000 100000000 100000000 100000000 100000000 100000000 100000000 100000000 100000000 100000000 100000000 100000000 100000000 100000000 100000000 100000000 100000000 100000000 100000000 100000000 100000000 100000000 100000000 100000000 100000000 100000000 100000000 100000000 100000000 100000000 100000000 100000000 100000000 100000000 100000000 100000000 100000000 100000000 100000000 
100000000 100000000 100000000 100000000 100000000 100000000 100000000 100000000 100000000 100000000 100000000 100000000 100000000 100000000 100000000 100000000 100000000 100000000 100000000 100000000 100000000 100000000 100000000 100000000 100000000 100000000 9 100000000 100000000 100000000 100000000 100000000 100000000 100000000 100000000 100000000 100000000 100000000 100000000 
100000000 55 100000000 100000000 100000000 100000000 100000000 100000000 100000000 100000000 100000000 100000000 100000000 100000000 100000000 100000000 100000000 51 100000000 100000000 100000000 49 100000000 56 100000000 100000000 100000000 100000000 100000000 100000000 100000000 100000000 100000000 100000000 100000000 100000000 52 100000000 100000000 
100000000 100000000 73 100000000 100000000 100000000 100000000 100000000 86 100000000 100000000 100000000 100000000 100000000 58 100000000 100000000 100000000 100000000 70 100000000 100000000 100000000 100000000 100000000 100000000 100000000 100000000 100000000 100000000 100000000 100000000 100000000 71 100000000 100000000 100000000 100000000 100000000 
100000000 100000000 77 100000000 100000000 100000000 100000000 86 100000000 100000000 100000000 100000000 100000000 100000000 62 100000000 100000000 100000000 100000000 74 100000000 100000000 100000000 100000000 100000000 100000000 100000000 100000000 100000000 100000000 100000000 100000000 100000000 75 100000000 100000000 100000000 100000000 100000000 
100000000 100000000 100000000 100000000 100000000 100000000 100000000 100000000 100000000 100000000 100000000 100000000 100000000 100000000 100000000 100000000 100000000 100000000 100000000 100000000 100000000 100000000 100000000 100000000 100000000 100000000 100000000 100000000 24 17 100000000 100000000 100000000 100000000 100000000 100000000 100000000 100000000 100000000 
100000000 100000000 100000000 100000000 100000000 100000000 100000000 100000000 100000000 100000000 100000000 100000000 100000000 100000000 100000000 100000000 100000000 100000000 100000000 100000000 100000000 100000000 100000000 100000000 100000000 100000000 100000000 13 100000000 100000000 100000000 100000000 100000000 100000000 100000000 100000000 100000000 100000000 100000000 
100000000 100000000 100000000 100000000 100000000 100000000 100000000 100000000 100000000 100000000 100000000 100000000 100000000 100000000 100000000 100000000 100000000 100000000 100000000 100000000 100000000 100000000 100000000 100000000 100000000 100000000 100000000 100000000 100000000 100000000 100000000 100000000 100000000 100000000 100000000 100000000 100000000 100000000 100000000 
100000000 100000000 100000000 100000000 100000000 100000000 100000000 100000000 100000000 100000000 100000000 100000000 100000000 100000000 100000000 100000000 100000000 100000000 100000000 100000000 100000000 100000000 100000000 100000000 100000000 100000000 100000000 100000000 100000000 100000000 100000000 29 100000000 100000000 100000000 100000000 100000000 38 48 
100000000 100000000 100000000 60 100000000 100000000 100000000 100000000 100000000 100000000 100000000 100000000 100000000 100000000 100000000 67 100000000 100000000 100000000 100000000 55 100000000 100000000 100000000 66 100000000 100000000 100000000 100000000 100000000 68 100000000 100000000 100000000 100000000 100000000 100000000 100000000 100000000 
100000000 100000000 71 100000000 100000000 100000000 100000000 58 62 100000000 100000000 100000000 100000000 100000000 100000000 100000000 100000000 100000000 100000000 63 100000000 100000000 100000000 100000000 100000000 100000000 100000000 100000000 100000000 100000000 100000000 100000000 100000000 60 100000000 100000000 100000000 100000000 100000000 
100000000 100000000 100000000 65 100000000 100000000 100000000 100000000 100000000 100000000 100000000 100000000 100000000 67 100000000 100000000 100000000 100000000 100000000 100000000 52 100000000 100000000 100000000 66 100000000 100000000 100000000 100000000 100000000 64 100000000 100000000 100000000 100000000 100000000 100000000 100000000 100000000 
100000000 100000000 100000000 100000000 100000000 100000000 100000000 100000000 100000000 100000000 100000000 100000000 100000000 100000000 100000000 100000000 100000000 100000000 100000000 100000000 100000000 100000000 100000000 100000000 100000000 100000000 100000000 100000000 100000000 100000000 100000000 100000000 100000000 100000000 100000000 100000000 100000000 100000000 100000000 
100000000 58 100000000 100000000 100000000 100000000 51 100000000 100000000 100000000 100000000 100000000 100000000 100000000 100000000 100000000 100000000 100000000 100000000 100000000 100000000 51 100000000 53 100000000 100000000 100000000 100000000 100000000 100000000 100000000 100000000 100000000 100000000 100000000 100000000 53 100000000 100000000 
100000000 100000000 100000000 100000000 100000000 100000000 100000000 100000000 100000000 100000000 100000000 100000000 100000000 100000000 100000000 100000000 100000000 100000000 100000000 100000000 100000000 100000000 19 100000000 100000000 100000000 100000000 100000000 100000000 100000000 100000000 100000000 100000000 100000000 15 100000000 100000000 100000000 100000000 
100000000 100000000 80 100000000 100000000 100000000 100000000 70 74 100000000 100000000 100000000 100000000 100000000 63 100000000 100000000 100000000 100000000 100000000 100000000 100000000 100000000 100000000 100000000 100000000 100000000 100000000 100000000 100000000 100000000 100000000 100000000 86 100000000 100000000 100000000 100000000 100000000 
100000000 100000000 100000000 42 100000000 100000000 100000000 100000000 100000000 100000000 100000000 100000000 100000000 55 100000000 52 100000000 100000000 100000000 100000000 100000000 100000000 100000000 100000000 48 100000000 100000000 100000000 100000000 100000000 60 100000000 100000000 100000000 100000000 100000000 100000000 100000000 100000000 
100000000 54 100000000 100000000 100000000 100000000 49 100000000 100000000 100000000 100000000 100000000 100000000 100000000 100000000 100000000 100000000 51 100000000 100000000 100000000 100000000 100000000 58 100000000 100000000 100000000 100000000 100000000 100000000 100000000 100000000 100000000 100000000 100000000 100000000 57 100000000 100000000 
100000000 100000000 100000000 100000000 100000000 100000000 100000000 100000000 100000000 100000000 100000000 100000000 100000000 100000000 100000000 100000000 100000000 100000000 19 100000000 100000000 100000000 100000000 100000000 100000000 100000000 100000000 100000000 100000000 100000000 100000000 100000000 100000000 100000000 22 100000000 100000000 100000000 100000000 
100000000 61 100000000 100000000 100000000 100000000 56 100000000 100000000 100000000 100000000 100000000 100000000 100000000 100000000 100000000 100000000 53 100000000 100000000 100000000 58 100000000 100000000 100000000 100000000 100000000 100000000 100000000 100000000 100000000 100000000 100000000 100000000 100000000 100000000 62 100000000 100000000 
100000000 100000000 100000000 63 100000000 100000000 100000000 100000000 100000000 100000000 100000000 100000000 100000000 66 100000000 66 100000000 100000000 100000000 100000000 48 100000000 100000000 100000000 100000000 100000000 100000000 100000000 100000000 100000000 60 100000000 100000000 100000000 100000000 100000000 100000000 100000000 100000000 
100000000 100000000 100000000 100000000 100000000 100000000 100000000 100000000 100000000 100000000 100000000 100000000 100000000 100000000 100000000 100000000 100000000 100000000 100000000 100000000 100000000 100000000 100000000 100000000 100000000 100000000 100000000 100000000 100000000 100000000 100000000 100000000 100000000 100000000 100000000 14 100000000 100000000 100000000 
100000000 100000000 100000000 100000000 100000000 9 100000000 100000000 100000000 100000000 100000000 100000000 100000000 100000000 100000000 100000000 100000000 100000000 100000000 100000000 100000000 100000000 100000000 100000000 100000000 100000000 100000000 100000000 100000000 100000000 100000000 100000000 100000000 100000000 100000000 100000000 100000000 100000000 100000000 
100000000 100000000 100000000 100000000 100000000 100000000 100000000 100000000 100000000 100000000 13 100000000 100000000 100000000 100000000 100000000 100000000 100000000 100000000 100000000 100000000 100000000 100000000 100000000 100000000 100000000 100000000 100000000 100000000 100000000 100000000 100000000 100000000 100000000 100000000 100000000 100000000 100000000 100000000 
100000000 100000000 100000000 100000000 100000000 100000000 100000000 100000000 100000000 24 100000000 100000000 100000000 100000000 100000000 100000000 100000000 100000000 100000000 100000000 100000000 100000000 100000000 100000000 100000000 100000000 100000000 100000000 100000000 27 100000000 100000000 100000000 100000000 100000000 100000000 100000000 100000000 100000000 
100000000 100000000 100000000 100000000 100000000 100000000 100000000 100000000 100000000 17 100000000 100000000 100000000 100000000 100000000 100000000 100000000 100000000 100000000 100000000 100000000 100000000 100000000 100000000 100000000 100000000 100000000 100000000 27 100000000 100000000 100000000 100000000 100000000 100000000 100000000 100000000 100000000 100000000 
100000000 100000000 100000000 54 100000000 100000000 100000000 100000000 100000000 100000000 100000000 100000000 100000000 68 100000000 64 100000000 100000000 100000000 100000000 60 100000000 100000000 100000000 60 100000000 100000000 100000000 100000000 100000000 100000000 100000000 100000000 100000000 100000000 100000000 100000000 100000000 100000000 
100000000 100000000 100000000 100000000 100000000 100000000 100000000 100000000 100000000 100000000 100000000 100000000 29 100000000 100000000 100000000 100000000 100000000 100000000 100000000 100000000 100000000 100000000 100000000 100000000 100000000 100000000 100000000 100000000 100000000 100000000 100000000 100000000 100000000 100000000 100000000 100000000 45 34 
100000000 100000000 100000000 100000000 100000000 100000000 100000000 100000000 100000000 100000000 100000000 100000000 100000000 100000000 100000000 100000000 100000000 100000000 100000000 100000000 100000000 100000000 100000000 100000000 100000000 100000000 100000000 100000000 100000000 100000000 100000000 100000000 100000000 100000000 100000000 100000000 100000000 100000000 100000000 
100000000 100000000 77 100000000 100000000 100000000 100000000 71 75 100000000 100000000 100000000 100000000 100000000 60 100000000 100000000 100000000 100000000 86 100000000 100000000 100000000 100000000 100000000 100000000 100000000 100000000 100000000 100000000 100000000 100000000 100000000 100000000 100000000 100000000 100000000 100000000 100000000 
100000000 100000000 100000000 100000000 100000000 100000000 100000000 100000000 100000000 100000000 100000000 100000000 100000000 100000000 100000000 100000000 100000000 100000000 15 100000000 100000000 100000000 22 100000000 100000000 100000000 100000000 100000000 100000000 100000000 100000000 100000000 100000000 100000000 100000000 100000000 100000000 100000000 100000000 
100000000 100000000 100000000 100000000 100000000 100000000 100000000 100000000 100000000 100000000 100000000 100000000 100000000 100000000 100000000 100000000 100000000 100000000 100000000 100000000 100000000 100000000 100000000 100000000 100000000 14 100000000 100000000 100000000 100000000 100000000 100000000 100000000 100000000 100000000 100000000 100000000 100000000 100000000 
100000000 59 100000000 100000000 100000000 100000000 52 100000000 100000000 100000000 100000000 100000000 100000000 100000000 100000000 100000000 100000000 53 100000000 100000000 100000000 57 100000000 62 100000000 100000000 100000000 100000000 100000000 100000000 100000000 100000000 100000000 100000000 100000000 100000000 100000000 100000000 100000000 
100000000 100000000 100000000 100000000 100000000 100000000 100000000 100000000 100000000 100000000 100000000 100000000 38 100000000 100000000 100000000 100000000 100000000 100000000 100000000 100000000 100000000 100000000 100000000 100000000 100000000 100000000 100000000 100000000 100000000 100000000 45 100000000 100000000 100000000 100000000 100000000 100000000 44 
100000000 100000000 100000000 100000000 100000000 100000000 100000000 100000000 100000000 100000000 100000000 100000000 48 100000000 100000000 100000000 100000000 100000000 100000000 100000000 100000000 100000000 100000000 100000000 100000000 100000000 100000000 100000000 100000000 100000000 100000000 34 100000000 100000000 100000000 100000000 100000000 44 100000000 
EOF
